3511799471529200797506,3,1,2,05,14,1,2,012,5,1,2,014,2,1,2,012,11,1,2,011,13,1,2,01,9,1,2,05,9,1,2,02,9,1,2,09,7,1,2,014,2,1,2,013,4,1,2,015,3,1,2,06,7,1,2,013,7,1,2,01,13,1,2,04,10,1,2,01,4,1,2,04,10,1,2,08,5,1,2,07,1,1,2,012,8,1,2,04,8,1,2,015,12,1,2,09,9,1,2,05,13,1,2,05,6,1,2,09,2,1,2,07,3,1,2,07,1,1,2,02,13,1,2,02,12,1,2,010,15,1,2,09,8,1,2,01,10,1,2,01,2,1,2,04,10,1,2,015,8,1,2,04,9,1,2,09,4,1,2,04,15,1,2,015,3,1,2,010,4,1,2,06,7,1,2,06,13,1,2,05,4,1,2,014,11,1,2,02,14,1,2,02,15,1,2,03,10,1,2,0